
List of user-set options:

                                    Name   Value                used
                         derivative_test = first-order           yes
                        file_print_level = 5                     yes
                   hessian_approximation = limited-memory        yes
                                  hsllib = /home/ggs24/packages/ThirdParty-HSL/.libs/libcoinhsl.so  yes
                           linear_solver = ma97                  yes
                                max_iter = 500                   yes
                             output_file = IPOPT.out             yes
                             print_level = 0                     yes
                      print_user_options = yes                   yes
                                      sb = yes                   yes
This is Ipopt version 3.14.7, running with linear solver ma97.

Starting derivative checker for first derivatives.

* jac_g [   28,    1] = -2.3951200393935610e-04 v  ~ -2.3946508666280151e-04  [ 1.959e-04]
* jac_g [   49,    2] = -2.4784652513478039e-05 v  ~ -2.4768538250956535e-05  [ 1.611e-04]
* jac_g [  129,    8] = -1.4659285043767451e-15 v  ~  1.6045458612086756e-08  [ 1.605e-04]
* jac_g [   56,   11] =  1.8318073784992747e-04 v  ~  1.8314239014216582e-04  [ 2.094e-04]
* jac_g [  129,   12] = -1.9545713391689937e-15 v  ~  2.6581772447723861e-08  [ 2.658e-04]

Derivative checker detected 5 error(s).

Number of nonzeros in equality constraint Jacobian...:       68
Number of nonzeros in inequality constraint Jacobian.:     8568
Number of nonzeros in Lagrangian Hessian.............:        0

Total number of variables............................:       17
                     variables with only lower bounds:        1
                variables with lower and upper bounds:        0
                     variables with only upper bounds:        0
Total number of equality constraints.................:        4
Total number of inequality constraints...............:      504
        inequality constraints with only lower bounds:        0
   inequality constraints with lower and upper bounds:      504
        inequality constraints with only upper bounds:        0

iter    objective    inf_pr   inf_du lg(mu)  ||d||  lg(rg) alpha_du alpha_pr  ls
   0  8.6763925e+00 6.23e-03 0.00e+00   0.0 0.00e+00    -  0.00e+00 0.00e+00   0
   1  8.6762492e+00 5.31e-03 2.79e-01  -6.3 3.74e-02    -  3.38e-01 2.64e-01h  1
   2  8.6755683e+00 4.71e-03 1.63e+00  -6.5 8.41e-02    -  2.07e-01 1.16e-01h  1
   3  8.6675758e+00 2.21e-03 6.10e-01  -6.6 1.24e-01    -  2.22e-01 5.37e-01h  1
   4  8.6631037e+00 1.40e-03 5.39e-01  -6.7 1.23e-01    -  2.86e-01 3.66e-01h  1
   5  8.6616819e+00 9.92e-04 7.09e-01  -6.8 6.99e-02    -  1.54e-01 2.93e-01h  1
   6  8.6611251e+00 8.43e-04 6.05e-01  -6.9 5.70e-02    -  1.64e-01 1.50e-01h  1
   7  8.6582969e+00 2.91e-04 4.23e+00  -7.0 5.22e-02    -  2.62e-03 6.57e-01h  1
   8  8.6580449e+00 2.68e-04 3.90e+00  -7.0 1.93e-02    -  1.12e-01 7.90e-02h  1
   9  8.6552073e+00 1.11e-04 1.50e+00  -7.0 5.49e-02    -  5.62e-03 5.88e-01h  1
iter    objective    inf_pr   inf_du lg(mu)  ||d||  lg(rg) alpha_du alpha_pr  ls
  10  8.6549757e+00 1.05e-04 2.66e+00  -7.0 7.60e-02    -  3.00e-01 5.32e-02h  1
  11  8.6532567e+00 7.59e-05 1.03e+00  -7.2 1.47e-01    -  3.88e-03 2.74e-01h  1
  12  8.6519434e+00 6.08e-05 9.22e-01  -7.2 1.52e-01    -  9.27e-02 1.99e-01h  1
  13  8.6512534e+00 5.43e-05 8.22e-01  -7.2 7.11e-02    -  8.67e-02 1.06e-01h  1
  14  8.6489256e+00 3.72e-05 8.16e-01  -7.3 1.34e-01    -  2.72e-03 3.15e-01h  1
  15  8.6488791e+00 3.65e-05 1.83e+00  -7.3 6.85e-02    -  1.56e-01 1.92e-02h  1
  16  8.6484793e+00 1.37e-04 1.39e+00  -7.3 5.88e-02    -  4.57e-02 2.16e-01h  1
  17  8.6478808e+00 1.26e-04 2.82e+00  -3.5 3.29e+00    -  3.54e-03 2.03e-03f  1
  18  8.6478688e+00 1.26e-04 2.52e+00  -7.4 2.67e-02    -  3.95e-02 4.47e-03h  1
  19  8.6473250e+00 1.14e-04 4.17e+00  -7.4 1.86e-02    -  6.68e-03 1.76e-01h  1
iter    objective    inf_pr   inf_du lg(mu)  ||d||  lg(rg) alpha_du alpha_pr  ls
  20  8.6470829e+00 1.06e-04 1.67e+00  -7.4 1.24e-02    -  2.88e-01 6.82e-02h  1
  21  8.6468479e+00 1.02e-04 1.60e+00  -7.5 1.77e-02    -  1.27e-01 3.66e-02h  1
  22  8.6448806e+00 7.11e-05 1.12e+00  -7.6 1.78e-02    -  2.25e-01 3.03e-01h  1
  23  8.6446547e+00 6.54e-05 1.02e+00  -7.7 1.22e-02    -  5.64e-02 8.04e-02h  1
  24  8.6432987e+00 4.97e-05 9.11e-01  -7.7 1.74e-02    -  5.05e-02 2.39e-01h  1
  25  8.6431543e+00 4.70e-05 8.95e-01  -7.7 1.21e-02    -  3.43e-02 5.47e-02h  1
  26  8.6430922e+00 4.48e-05 8.53e-01  -7.8 3.35e-02    -  4.78e-02 4.75e-02h  1
  27  8.6420238e+00 8.35e-06 1.51e+01  -3.9 1.31e-01    -  3.39e-02 1.76e-01f  1
  28  8.6413272e+00 9.68e-06 1.23e+01  -7.8 1.46e-02    -  2.25e-01 1.82e-01h  1
  29  8.6410211e+00 2.48e-05 1.09e+01  -7.9 1.89e-02    -  2.40e-01 1.20e-01h  1
iter    objective    inf_pr   inf_du lg(mu)  ||d||  lg(rg) alpha_du alpha_pr  ls
  30  8.6406134e+00 2.27e-05 1.87e+01  -4.1 3.09e-02    -  1.23e-01 2.24e-01f  1
  31  8.6425254e+00 1.69e-07 1.12e+02  -4.0 2.87e-02    -  2.37e-01 8.28e-01h  1
  32  8.6418498e+00 5.93e-07 9.69e+01  -8.2 1.32e-02    -  7.78e-01 1.82e-01h  1
  33  8.6405091e+00 4.28e-06 4.16e+01  -4.5 9.31e-03    -  9.91e-01 8.04e-01h  1
  34  8.6397932e+00 3.20e-06 3.60e+01  -5.3 1.18e-02    -  1.00e+00 6.10e-01h  1
  35  8.6396960e+00 4.44e-16 3.41e-04  -5.0 1.09e-02    -  1.00e+00 1.00e+00h  1
  36  8.6395575e+00 5.18e-07 2.00e+02  -5.7 1.14e-02    -  9.99e-01 6.64e-01h  1
  37  8.6395873e+00 0.00e+00 1.45e-04  -5.3 2.63e-03    -  1.00e+00 1.00e+00h  1
  38  8.6395222e+00 2.53e-07 6.45e+01  -6.2 8.08e-03    -  9.98e-01 8.37e-01h  1
  39  8.6395130e+00 4.34e-07 1.33e+01  -7.3 3.25e-03    -  1.00e+00 8.92e-01h  1
iter    objective    inf_pr   inf_du lg(mu)  ||d||  lg(rg) alpha_du alpha_pr  ls
  40  8.6395122e+00 5.62e-08 2.33e-01  -8.6 6.40e-04    -  1.00e+00 9.87e-01h  1
  41  8.6395122e+00 8.09e-09 1.23e-06 -10.4 2.51e-04    -  1.00e+00 9.94e-01h  1
  42  8.6395122e+00 8.47e-10 4.66e-07 -11.0 8.36e-05    -  1.00e+00 1.00e+00h  1
  43  8.6395122e+00 3.25e-12 2.64e-08 -11.0 1.14e-05    -  1.00e+00 1.00e+00h  1
  44  8.6395122e+00 4.44e-16 1.28e-08 -11.0 2.33e-07    -  1.00e+00 1.00e+00h  1
  45  8.6395122e+00 4.44e-16 7.53e-09 -11.0 1.47e-07    -  1.00e+00 1.00e+00h  1

Number of Iterations....: 45

                                   (scaled)                 (unscaled)
Objective...............:   8.6395122295882167e+00    8.6395122295882167e+00
Dual infeasibility......:   7.5265081354858321e-09    7.5265081354858321e-09
Constraint violation....:   4.4408920985006262e-16    4.4408920985006262e-16
Variable bound violation:   0.0000000000000000e+00    0.0000000000000000e+00
Complementarity.........:   1.0000123752358754e-11    1.0000123752358754e-11
Overall NLP error.......:   7.5265081354858321e-09    7.5265081354858321e-09


Number of objective function evaluations             = 46
Number of objective gradient evaluations             = 46
Number of equality constraint evaluations            = 46
Number of inequality constraint evaluations          = 46
Number of equality constraint Jacobian evaluations   = 46
Number of inequality constraint Jacobian evaluations = 46
Number of Lagrangian Hessian evaluations             = 0
Total seconds in IPOPT                               = 1.022

EXIT: Optimal Solution Found.
